NAME 
OBJSENSE MAX
ROWS
 N  OBJ
 L  packing[0]
 L  packing[1]
 L  packing[2]
 L  packing[3]
 L  packing[4]
 L  packing[5]
 L  packing[6]
 L  packing[7]
 L  packing[8]
 L  packing[9]
 L  packing[10]
 L  packing[11]
 L  packing[12]
 L  packing[13]
 L  packing[14]
 L  packing[15]
 L  packing[16]
 L  packing[17]
 L  packing[18]
 L  packing[19]
 L  packing[20]
 L  packing[21]
 L  packing[22]
 L  packing[23]
 L  packing[24]
 L  packing[25]
 L  packing[26]
 L  packing[27]
 L  packing[28]
 L  packing[29]
 L  packing[30]
 L  packing[31]
 L  packing[32]
 L  packing[33]
 L  packing[34]
 L  packing[35]
 L  packing[36]
 L  packing[37]
 L  packing[38]
 L  packing[39]
 L  packing[40]
 L  packing[41]
 L  packing[42]
 L  packing[43]
 L  packing[44]
 L  packing[45]
 L  packing[46]
 L  packing[47]
 L  packing[48]
 L  packing[49]
COLUMNS
    MARKER    'MARKER'                 'INTORG'
    x[1]      OBJ       115
    x[1]      packing[0]  138
    x[1]      packing[2]  92
    x[1]      packing[3]  173
    x[1]      packing[4]  103
    x[1]      packing[5]  88
    x[1]      packing[6]  102
    x[1]      packing[7]  33
    x[1]      packing[8]  22
    x[1]      packing[9]  104
    x[1]      packing[10]  42
    x[1]      packing[11]  40
    x[1]      packing[12]  67
    x[1]      packing[13]  29
    x[1]      packing[14]  87
    x[1]      packing[15]  53
    x[1]      packing[16]  180
    x[1]      packing[17]  151
    x[1]      packing[18]  147
    x[1]      packing[22]  59
    x[1]      packing[23]  56
    x[1]      packing[24]  40
    x[1]      packing[25]  122
    x[1]      packing[26]  141
    x[1]      packing[27]  81
    x[1]      packing[28]  114
    x[1]      packing[29]  133
    x[1]      packing[30]  118
    x[1]      packing[32]  167
    x[1]      packing[34]  188
    x[1]      packing[35]  10
    x[1]      packing[36]  9
    x[1]      packing[37]  54
    x[1]      packing[38]  134
    x[1]      packing[39]  154
    x[1]      packing[40]  72
    x[1]      packing[42]  129
    x[1]      packing[44]  140
    x[1]      packing[45]  182
    x[1]      packing[46]  176
    x[1]      packing[47]  111
    x[1]      packing[48]  70
    x[2]      OBJ       22
    x[2]      packing[0]  3
    x[2]      packing[1]  18
    x[2]      packing[2]  46
    x[2]      packing[4]  195
    x[2]      packing[5]  108
    x[2]      packing[6]  152
    x[2]      packing[7]  39
    x[2]      packing[9]  133
    x[2]      packing[12]  83
    x[2]      packing[13]  94
    x[2]      packing[14]  76
    x[2]      packing[15]  174
    x[2]      packing[16]  127
    x[2]      packing[19]  97
    x[2]      packing[22]  59
    x[2]      packing[23]  152
    x[2]      packing[24]  120
    x[2]      packing[25]  169
    x[2]      packing[26]  158
    x[2]      packing[27]  188
    x[2]      packing[28]  46
    x[2]      packing[29]  13
    x[2]      packing[30]  107
    x[2]      packing[33]  83
    x[2]      packing[34]  43
    x[2]      packing[35]  71
    x[2]      packing[36]  51
    x[2]      packing[39]  97
    x[2]      packing[40]  173
    x[2]      packing[41]  63
    x[2]      packing[42]  121
    x[2]      packing[43]  128
    x[2]      packing[45]  111
    x[2]      packing[48]  120
    x[2]      packing[49]  35
    x[3]      OBJ       49
    x[3]      packing[0]  113
    x[3]      packing[1]  62
    x[3]      packing[2]  178
    x[3]      packing[3]  19
    x[3]      packing[4]  67
    x[3]      packing[8]  155
    x[3]      packing[11]  81
    x[3]      packing[12]  95
    x[3]      packing[14]  100
    x[3]      packing[15]  162
    x[3]      packing[16]  149
    x[3]      packing[18]  111
    x[3]      packing[19]  69
    x[3]      packing[21]  83
    x[3]      packing[24]  199
    x[3]      packing[26]  164
    x[3]      packing[27]  13
    x[3]      packing[29]  79
    x[3]      packing[30]  24
    x[3]      packing[31]  81
    x[3]      packing[32]  54
    x[3]      packing[34]  82
    x[3]      packing[37]  184
    x[3]      packing[38]  131
    x[3]      packing[39]  83
    x[3]      packing[41]  73
    x[3]      packing[42]  189
    x[3]      packing[44]  147
    x[3]      packing[45]  41
    x[3]      packing[46]  8
    x[3]      packing[47]  21
    x[3]      packing[48]  163
    x[3]      packing[49]  15
    x[4]      OBJ       163
    x[4]      packing[0]  116
    x[4]      packing[1]  167
    x[4]      packing[3]  72
    x[4]      packing[4]  189
    x[4]      packing[5]  100
    x[4]      packing[6]  143
    x[4]      packing[13]  62
    x[4]      packing[14]  123
    x[4]      packing[15]  105
    x[4]      packing[16]  45
    x[4]      packing[17]  148
    x[4]      packing[19]  16
    x[4]      packing[20]  26
    x[4]      packing[21]  57
    x[4]      packing[22]  93
    x[4]      packing[23]  68
    x[4]      packing[24]  170
    x[4]      packing[25]  14
    x[4]      packing[26]  188
    x[4]      packing[27]  161
    x[4]      packing[28]  49
    x[4]      packing[30]  114
    x[4]      packing[33]  122
    x[4]      packing[36]  108
    x[4]      packing[37]  74
    x[4]      packing[38]  152
    x[4]      packing[39]  139
    x[4]      packing[41]  105
    x[4]      packing[42]  71
    x[4]      packing[43]  170
    x[4]      packing[45]  193
    x[4]      packing[46]  125
    x[4]      packing[47]  150
    x[4]      packing[48]  26
    x[4]      packing[49]  110
    x[5]      OBJ       43
    x[5]      packing[0]  116
    x[5]      packing[1]  196
    x[5]      packing[2]  70
    x[5]      packing[4]  190
    x[5]      packing[5]  83
    x[5]      packing[7]  96
    x[5]      packing[8]  78
    x[5]      packing[11]  126
    x[5]      packing[12]  151
    x[5]      packing[13]  95
    x[5]      packing[14]  141
    x[5]      packing[16]  122
    x[5]      packing[17]  94
    x[5]      packing[18]  47
    x[5]      packing[19]  11
    x[5]      packing[20]  83
    x[5]      packing[21]  46
    x[5]      packing[22]  86
    x[5]      packing[23]  191
    x[5]      packing[24]  133
    x[5]      packing[25]  190
    x[5]      packing[26]  35
    x[5]      packing[27]  43
    x[5]      packing[29]  137
    x[5]      packing[31]  76
    x[5]      packing[32]  98
    x[5]      packing[34]  91
    x[5]      packing[35]  170
    x[5]      packing[36]  161
    x[5]      packing[37]  41
    x[5]      packing[38]  175
    x[5]      packing[39]  161
    x[5]      packing[40]  52
    x[5]      packing[41]  113
    x[5]      packing[42]  149
    x[5]      packing[43]  177
    x[5]      packing[45]  5
    x[5]      packing[46]  179
    x[5]      packing[47]  188
    x[5]      packing[49]  155
    x[6]      OBJ       188
    x[6]      packing[1]  4
    x[6]      packing[2]  74
    x[6]      packing[4]  16
    x[6]      packing[5]  20
    x[6]      packing[6]  129
    x[6]      packing[7]  6
    x[6]      packing[8]  33
    x[6]      packing[10]  110
    x[6]      packing[11]  103
    x[6]      packing[12]  88
    x[6]      packing[13]  96
    x[6]      packing[15]  177
    x[6]      packing[17]  69
    x[6]      packing[18]  128
    x[6]      packing[20]  121
    x[6]      packing[21]  102
    x[6]      packing[23]  165
    x[6]      packing[25]  102
    x[6]      packing[26]  168
    x[6]      packing[27]  116
    x[6]      packing[28]  123
    x[6]      packing[29]  36
    x[6]      packing[31]  192
    x[6]      packing[32]  114
    x[6]      packing[33]  106
    x[6]      packing[36]  175
    x[6]      packing[40]  103
    x[6]      packing[41]  103
    x[6]      packing[43]  89
    x[6]      packing[44]  35
    x[6]      packing[45]  185
    x[6]      packing[46]  21
    x[6]      packing[48]  42
    x[6]      packing[49]  130
    x[7]      OBJ       55
    x[7]      packing[0]  121
    x[7]      packing[1]  85
    x[7]      packing[3]  78
    x[7]      packing[4]  199
    x[7]      packing[5]  42
    x[7]      packing[7]  155
    x[7]      packing[8]  75
    x[7]      packing[10]  34
    x[7]      packing[11]  4
    x[7]      packing[13]  104
    x[7]      packing[16]  13
    x[7]      packing[17]  117
    x[7]      packing[19]  69
    x[7]      packing[20]  128
    x[7]      packing[22]  186
    x[7]      packing[23]  197
    x[7]      packing[24]  62
    x[7]      packing[26]  62
    x[7]      packing[28]  164
    x[7]      packing[30]  151
    x[7]      packing[32]  104
    x[7]      packing[33]  137
    x[7]      packing[34]  118
    x[7]      packing[35]  41
    x[7]      packing[38]  12
    x[7]      packing[39]  144
    x[7]      packing[41]  172
    x[7]      packing[42]  103
    x[7]      packing[43]  84
    x[7]      packing[45]  74
    x[7]      packing[46]  120
    x[7]      packing[47]  126
    x[7]      packing[48]  197
    x[7]      packing[49]  19
    x[8]      OBJ       69
    x[8]      packing[0]  28
    x[8]      packing[1]  162
    x[8]      packing[2]  75
    x[8]      packing[3]  6
    x[8]      packing[4]  74
    x[8]      packing[6]  70
    x[8]      packing[8]  199
    x[8]      packing[9]  181
    x[8]      packing[10]  161
    x[8]      packing[13]  102
    x[8]      packing[14]  192
    x[8]      packing[15]  63
    x[8]      packing[16]  23
    x[8]      packing[19]  127
    x[8]      packing[20]  128
    x[8]      packing[21]  9
    x[8]      packing[22]  88
    x[8]      packing[26]  14
    x[8]      packing[27]  76
    x[8]      packing[28]  197
    x[8]      packing[30]  58
    x[8]      packing[31]  82
    x[8]      packing[32]  57
    x[8]      packing[36]  125
    x[8]      packing[37]  27
    x[8]      packing[38]  189
    x[8]      packing[39]  37
    x[8]      packing[40]  31
    x[8]      packing[41]  167
    x[8]      packing[42]  141
    x[8]      packing[43]  86
    x[8]      packing[44]  13
    x[8]      packing[45]  18
    x[8]      packing[46]  50
    x[8]      packing[47]  161
    x[8]      packing[49]  4
    x[9]      OBJ       91
    x[9]      packing[0]  74
    x[9]      packing[1]  161
    x[9]      packing[2]  62
    x[9]      packing[3]  45
    x[9]      packing[6]  46
    x[9]      packing[8]  14
    x[9]      packing[9]  42
    x[9]      packing[10]  68
    x[9]      packing[11]  85
    x[9]      packing[12]  152
    x[9]      packing[13]  82
    x[9]      packing[17]  104
    x[9]      packing[18]  21
    x[9]      packing[20]  121
    x[9]      packing[21]  88
    x[9]      packing[23]  43
    x[9]      packing[24]  99
    x[9]      packing[25]  70
    x[9]      packing[27]  31
    x[9]      packing[29]  152
    x[9]      packing[30]  33
    x[9]      packing[31]  90
    x[9]      packing[32]  14
    x[9]      packing[33]  69
    x[9]      packing[34]  185
    x[9]      packing[35]  91
    x[9]      packing[36]  84
    x[9]      packing[37]  110
    x[9]      packing[39]  187
    x[9]      packing[40]  39
    x[9]      packing[41]  74
    x[9]      packing[42]  29
    x[9]      packing[44]  98
    x[9]      packing[45]  196
    x[9]      packing[48]  129
    x[9]      packing[49]  153
    x[10]     OBJ       95
    x[10]     packing[1]  140
    x[10]     packing[3]  125
    x[10]     packing[4]  124
    x[10]     packing[5]  196
    x[10]     packing[10]  71
    x[10]     packing[12]  119
    x[10]     packing[13]  142
    x[10]     packing[14]  115
    x[10]     packing[15]  181
    x[10]     packing[16]  60
    x[10]     packing[18]  185
    x[10]     packing[20]  91
    x[10]     packing[21]  143
    x[10]     packing[22]  161
    x[10]     packing[24]  46
    x[10]     packing[25]  174
    x[10]     packing[26]  134
    x[10]     packing[27]  64
    x[10]     packing[28]  95
    x[10]     packing[29]  3
    x[10]     packing[30]  176
    x[10]     packing[31]  168
    x[10]     packing[32]  191
    x[10]     packing[35]  131
    x[10]     packing[36]  64
    x[10]     packing[37]  17
    x[10]     packing[38]  95
    x[10]     packing[39]  47
    x[10]     packing[40]  92
    x[10]     packing[42]  166
    x[10]     packing[43]  180
    x[10]     packing[44]  16
    x[10]     packing[45]  117
    x[10]     packing[46]  138
    x[10]     packing[47]  85
    x[10]     packing[49]  175
    x[11]     OBJ       122
    x[11]     packing[0]  36
    x[11]     packing[1]  48
    x[11]     packing[2]  107
    x[11]     packing[3]  117
    x[11]     packing[4]  43
    x[11]     packing[5]  97
    x[11]     packing[8]  198
    x[11]     packing[9]  110
    x[11]     packing[10]  28
    x[11]     packing[11]  166
    x[11]     packing[13]  153
    x[11]     packing[14]  154
    x[11]     packing[15]  139
    x[11]     packing[16]  47
    x[11]     packing[17]  95
    x[11]     packing[18]  135
    x[11]     packing[19]  119
    x[11]     packing[20]  181
    x[11]     packing[21]  38
    x[11]     packing[22]  163
    x[11]     packing[23]  163
    x[11]     packing[24]  178
    x[11]     packing[26]  11
    x[11]     packing[27]  187
    x[11]     packing[28]  104
    x[11]     packing[29]  22
    x[11]     packing[31]  154
    x[11]     packing[32]  145
    x[11]     packing[33]  133
    x[11]     packing[35]  18
    x[11]     packing[36]  144
    x[11]     packing[39]  19
    x[11]     packing[40]  125
    x[11]     packing[43]  9
    x[11]     packing[44]  111
    x[11]     packing[46]  31
    x[11]     packing[47]  86
    x[12]     OBJ       70
    x[12]     packing[2]  126
    x[12]     packing[3]  54
    x[12]     packing[4]  173
    x[12]     packing[8]  167
    x[12]     packing[9]  145
    x[12]     packing[10]  74
    x[12]     packing[11]  190
    x[12]     packing[12]  82
    x[12]     packing[14]  120
    x[12]     packing[15]  95
    x[12]     packing[16]  12
    x[12]     packing[17]  139
    x[12]     packing[18]  124
    x[12]     packing[19]  191
    x[12]     packing[20]  6
    x[12]     packing[21]  144
    x[12]     packing[23]  22
    x[12]     packing[24]  168
    x[12]     packing[25]  14
    x[12]     packing[29]  198
    x[12]     packing[31]  188
    x[12]     packing[32]  85
    x[12]     packing[33]  11
    x[12]     packing[34]  123
    x[12]     packing[35]  173
    x[12]     packing[36]  141
    x[12]     packing[38]  40
    x[12]     packing[40]  81
    x[12]     packing[41]  174
    x[12]     packing[42]  36
    x[12]     packing[43]  178
    x[12]     packing[44]  77
    x[12]     packing[45]  149
    x[12]     packing[46]  196
    x[12]     packing[47]  187
    x[12]     packing[48]  21
    x[12]     packing[49]  134
    x[13]     OBJ       54
    x[13]     packing[0]  132
    x[13]     packing[1]  175
    x[13]     packing[2]  36
    x[13]     packing[3]  73
    x[13]     packing[5]  44
    x[13]     packing[8]  137
    x[13]     packing[9]  16
    x[13]     packing[10]  61
    x[13]     packing[12]  172
    x[13]     packing[14]  129
    x[13]     packing[15]  8
    x[13]     packing[16]  6
    x[13]     packing[17]  133
    x[13]     packing[18]  186
    x[13]     packing[19]  16
    x[13]     packing[20]  3
    x[13]     packing[21]  114
    x[13]     packing[22]  116
    x[13]     packing[23]  104
    x[13]     packing[24]  138
    x[13]     packing[25]  155
    x[13]     packing[27]  18
    x[13]     packing[28]  195
    x[13]     packing[29]  103
    x[13]     packing[31]  187
    x[13]     packing[33]  142
    x[13]     packing[34]  129
    x[13]     packing[35]  110
    x[13]     packing[40]  169
    x[13]     packing[42]  85
    x[13]     packing[43]  77
    x[13]     packing[44]  142
    x[13]     packing[45]  90
    x[13]     packing[46]  152
    x[13]     packing[47]  122
    x[13]     packing[48]  106
    x[13]     packing[49]  161
    x[14]     OBJ       121
    x[14]     packing[0]  61
    x[14]     packing[1]  125
    x[14]     packing[2]  51
    x[14]     packing[4]  68
    x[14]     packing[5]  178
    x[14]     packing[6]  26
    x[14]     packing[7]  66
    x[14]     packing[8]  43
    x[14]     packing[9]  9
    x[14]     packing[10]  22
    x[14]     packing[11]  81
    x[14]     packing[13]  12
    x[14]     packing[14]  163
    x[14]     packing[15]  190
    x[14]     packing[17]  191
    x[14]     packing[18]  139
    x[14]     packing[19]  195
    x[14]     packing[20]  84
    x[14]     packing[23]  95
    x[14]     packing[24]  176
    x[14]     packing[25]  79
    x[14]     packing[26]  111
    x[14]     packing[27]  58
    x[14]     packing[28]  141
    x[14]     packing[29]  22
    x[14]     packing[30]  179
    x[14]     packing[31]  154
    x[14]     packing[32]  151
    x[14]     packing[33]  99
    x[14]     packing[34]  52
    x[14]     packing[35]  16
    x[14]     packing[36]  141
    x[14]     packing[38]  164
    x[14]     packing[40]  139
    x[14]     packing[41]  102
    x[14]     packing[43]  197
    x[14]     packing[44]  141
    x[14]     packing[45]  47
    x[14]     packing[46]  44
    x[14]     packing[47]  12
    x[14]     packing[48]  131
    x[14]     packing[49]  111
    x[15]     OBJ       139
    x[15]     packing[1]  13
    x[15]     packing[2]  46
    x[15]     packing[4]  174
    x[15]     packing[6]  199
    x[15]     packing[7]  172
    x[15]     packing[8]  133
    x[15]     packing[9]  81
    x[15]     packing[10]  64
    x[15]     packing[13]  19
    x[15]     packing[14]  97
    x[15]     packing[16]  86
    x[15]     packing[17]  175
    x[15]     packing[20]  49
    x[15]     packing[21]  97
    x[15]     packing[22]  38
    x[15]     packing[23]  76
    x[15]     packing[24]  118
    x[15]     packing[25]  102
    x[15]     packing[26]  153
    x[15]     packing[28]  6
    x[15]     packing[31]  23
    x[15]     packing[32]  73
    x[15]     packing[33]  71
    x[15]     packing[35]  97
    x[15]     packing[36]  160
    x[15]     packing[37]  109
    x[15]     packing[38]  156
    x[15]     packing[40]  194
    x[15]     packing[41]  129
    x[15]     packing[42]  159
    x[15]     packing[43]  91
    x[15]     packing[45]  5
    x[15]     packing[47]  73
    x[15]     packing[48]  94
    x[15]     packing[49]  160
    x[16]     OBJ       130
    x[16]     packing[0]  131
    x[16]     packing[2]  135
    x[16]     packing[3]  8
    x[16]     packing[4]  28
    x[16]     packing[6]  124
    x[16]     packing[7]  80
    x[16]     packing[8]  29
    x[16]     packing[9]  166
    x[16]     packing[10]  106
    x[16]     packing[12]  134
    x[16]     packing[16]  139
    x[16]     packing[17]  156
    x[16]     packing[19]  187
    x[16]     packing[20]  46
    x[16]     packing[21]  47
    x[16]     packing[22]  5
    x[16]     packing[23]  17
    x[16]     packing[24]  77
    x[16]     packing[25]  53
    x[16]     packing[26]  82
    x[16]     packing[28]  66
    x[16]     packing[29]  154
    x[16]     packing[30]  190
    x[16]     packing[31]  191
    x[16]     packing[32]  58
    x[16]     packing[33]  10
    x[16]     packing[36]  68
    x[16]     packing[37]  89
    x[16]     packing[39]  133
    x[16]     packing[40]  132
    x[16]     packing[41]  139
    x[16]     packing[42]  141
    x[16]     packing[44]  19
    x[16]     packing[45]  157
    x[16]     packing[46]  109
    x[16]     packing[49]  113
    x[17]     OBJ       95
    x[17]     packing[0]  5
    x[17]     packing[1]  88
    x[17]     packing[3]  156
    x[17]     packing[4]  12
    x[17]     packing[5]  78
    x[17]     packing[7]  7
    x[17]     packing[8]  87
    x[17]     packing[10]  10
    x[17]     packing[11]  12
    x[17]     packing[12]  169
    x[17]     packing[13]  112
    x[17]     packing[15]  20
    x[17]     packing[16]  137
    x[17]     packing[17]  172
    x[17]     packing[18]  19
    x[17]     packing[19]  77
    x[17]     packing[20]  171
    x[17]     packing[21]  102
    x[17]     packing[22]  80
    x[17]     packing[23]  118
    x[17]     packing[24]  52
    x[17]     packing[26]  70
    x[17]     packing[27]  33
    x[17]     packing[28]  26
    x[17]     packing[29]  84
    x[17]     packing[30]  9
    x[17]     packing[31]  35
    x[17]     packing[32]  69
    x[17]     packing[33]  191
    x[17]     packing[34]  59
    x[17]     packing[35]  112
    x[17]     packing[37]  47
    x[17]     packing[38]  23
    x[17]     packing[43]  170
    x[17]     packing[44]  13
    x[17]     packing[45]  133
    x[17]     packing[46]  64
    x[17]     packing[47]  17
    x[17]     packing[49]  68
    x[18]     OBJ       115
    x[18]     packing[0]  122
    x[18]     packing[4]  66
    x[18]     packing[6]  76
    x[18]     packing[7]  107
    x[18]     packing[8]  146
    x[18]     packing[9]  32
    x[18]     packing[10]  45
    x[18]     packing[11]  170
    x[18]     packing[12]  121
    x[18]     packing[15]  41
    x[18]     packing[16]  78
    x[18]     packing[17]  7
    x[18]     packing[19]  63
    x[18]     packing[20]  189
    x[18]     packing[21]  59
    x[18]     packing[22]  23
    x[18]     packing[23]  168
    x[18]     packing[24]  75
    x[18]     packing[27]  94
    x[18]     packing[30]  25
    x[18]     packing[31]  63
    x[18]     packing[33]  45
    x[18]     packing[34]  197
    x[18]     packing[38]  134
    x[18]     packing[39]  81
    x[18]     packing[41]  98
    x[18]     packing[42]  191
    x[18]     packing[43]  72
    x[18]     packing[44]  107
    x[18]     packing[45]  149
    x[18]     packing[46]  173
    x[18]     packing[47]  148
    x[18]     packing[49]  137
    x[19]     OBJ       135
    x[19]     packing[0]  177
    x[19]     packing[1]  56
    x[19]     packing[2]  182
    x[19]     packing[3]  175
    x[19]     packing[4]  172
    x[19]     packing[5]  48
    x[19]     packing[6]  95
    x[19]     packing[7]  96
    x[19]     packing[8]  146
    x[19]     packing[10]  104
    x[19]     packing[11]  94
    x[19]     packing[12]  136
    x[19]     packing[14]  136
    x[19]     packing[15]  179
    x[19]     packing[16]  179
    x[19]     packing[17]  73
    x[19]     packing[19]  128
    x[19]     packing[20]  13
    x[19]     packing[22]  76
    x[19]     packing[23]  67
    x[19]     packing[25]  188
    x[19]     packing[26]  62
    x[19]     packing[27]  85
    x[19]     packing[28]  195
    x[19]     packing[32]  173
    x[19]     packing[33]  45
    x[19]     packing[35]  84
    x[19]     packing[36]  191
    x[19]     packing[37]  128
    x[19]     packing[38]  46
    x[19]     packing[40]  114
    x[19]     packing[41]  86
    x[19]     packing[43]  101
    x[19]     packing[45]  43
    x[19]     packing[47]  188
    x[19]     packing[49]  165
    x[20]     OBJ       175
    x[20]     packing[0]  121
    x[20]     packing[1]  199
    x[20]     packing[2]  2
    x[20]     packing[3]  10
    x[20]     packing[5]  198
    x[20]     packing[7]  26
    x[20]     packing[8]  10
    x[20]     packing[9]  51
    x[20]     packing[10]  58
    x[20]     packing[11]  181
    x[20]     packing[12]  178
    x[20]     packing[13]  16
    x[20]     packing[14]  5
    x[20]     packing[15]  149
    x[20]     packing[16]  121
    x[20]     packing[17]  147
    x[20]     packing[19]  22
    x[20]     packing[20]  84
    x[20]     packing[21]  186
    x[20]     packing[23]  166
    x[20]     packing[24]  132
    x[20]     packing[25]  45
    x[20]     packing[26]  125
    x[20]     packing[27]  179
    x[20]     packing[29]  121
    x[20]     packing[33]  190
    x[20]     packing[34]  40
    x[20]     packing[35]  28
    x[20]     packing[37]  95
    x[20]     packing[38]  149
    x[20]     packing[39]  29
    x[20]     packing[40]  131
    x[20]     packing[41]  112
    x[20]     packing[44]  168
    x[20]     packing[45]  83
    x[20]     packing[46]  58
    x[20]     packing[47]  98
    x[20]     packing[48]  98
    MARKER    'MARKER'                 'INTEND'
RHS
    RHS1      packing[0]  747
    RHS1      packing[1]  850
    RHS1      packing[2]  641
    RHS1      packing[3]  556
    RHS1      packing[4]  947
    RHS1      packing[5]  640
    RHS1      packing[6]  581
    RHS1      packing[7]  442
    RHS1      packing[8]  836
    RHS1      packing[9]  535
    RHS1      packing[10]  529
    RHS1      packing[11]  667
    RHS1      packing[12]  874
    RHS1      packing[13]  559
    RHS1      packing[14]  819
    RHS1      packing[15]  868
    RHS1      packing[16]  762
    RHS1      packing[17]  986
    RHS1      packing[18]  621
    RHS1      packing[19]  694
    RHS1      packing[20]  762
    RHS1      packing[21]  658
    RHS1      packing[22]  617
    RHS1      packing[23]  934
    RHS1      packing[24]  992
    RHS1      packing[25]  739
    RHS1      packing[26]  839
    RHS1      packing[27]  714
    RHS1      packing[28]  761
    RHS1      packing[29]  629
    RHS1      packing[30]  592
    RHS1      packing[31]  842
    RHS1      packing[32]  777
    RHS1      packing[33]  727
    RHS1      packing[34]  654
    RHS1      packing[35]  576
    RHS1      packing[36]  811
    RHS1      packing[37]  488
    RHS1      packing[38]  800
    RHS1      packing[39]  656
    RHS1      packing[40]  824
    RHS1      packing[41]  855
    RHS1      packing[42]  855
    RHS1      packing[43]  905
    RHS1      packing[44]  614
    RHS1      packing[45]  989
    RHS1      packing[46]  822
    RHS1      packing[47]  887
    RHS1      packing[48]  599
    RHS1      packing[49]  923
BOUNDS
 BV BND1      x[1]    
 BV BND1      x[2]    
 BV BND1      x[3]    
 BV BND1      x[4]    
 BV BND1      x[5]    
 BV BND1      x[6]    
 BV BND1      x[7]    
 BV BND1      x[8]    
 BV BND1      x[9]    
 BV BND1      x[10]   
 BV BND1      x[11]   
 BV BND1      x[12]   
 BV BND1      x[13]   
 BV BND1      x[14]   
 BV BND1      x[15]   
 BV BND1      x[16]   
 BV BND1      x[17]   
 BV BND1      x[18]   
 BV BND1      x[19]   
 BV BND1      x[20]   
ENDATA
